
Gurobi 6.0.4 (win64) logging started 06/17/15 22:56:59

Read LP format model from file E:\Eigene Dateien\Downloads\Michi shit\VRPTWMS-master\VRPTWMS\instances\mip\fuel\N9-C_DV100-C_SV25_F5_4_No_1.lp
Reading time = 0.01 seconds
(null): 514 rows, 251 columns, 2154 nonzeros
Optimize a model with 514 rows, 251 columns and 2154 nonzeros
Model has 810 quadratic constraints
WARNING: Only barrier available for SOCP models
Coefficient statistics:
  Matrix range    [1e+00, 1e+06]
  Objective range [1e+04, 1e+07]
  Bounds range    [1e+00, 1e+06]
  RHS range       [1e+00, 1e+06]
Presolve removed 51 rows and 31 columns
Presolve time: 0.04s
Presolved: 1719 rows, 876 columns, 8530 nonzeros
Variable types: 600 continuous, 276 integer (228 binary)
Found heuristic solution: objective 9.305000e+07
Optimize a model with 1719 rows, 876 columns and 8530 nonzeros
Coefficient statistics:
  Matrix range    [1e+00, 1e+06]
  Objective range [1e+04, 1e+07]
  Bounds range    [1e+00, 1e+06]
  RHS range       [1e+00, 1e+06]

Concurrent LP optimizer: dual simplex and barrier
Showing barrier log only...

Presolve removed 180 rows and 115 columns
Presolved: 1539 rows, 762 columns, 7710 nonzeros

Root barrier log...

Ordering time: 0.01s

Barrier performed 0 iterations in 0.07 seconds
Barrier solve interrupted - model solved by another algorithm


Solved with dual simplex
Solved in 115 iterations and 0.08 seconds
Optimal objective  7.404538198e+06

Root relaxation: objective 7.404538e+06, 115 iterations, 0.02 seconds

    Nodes    |    Current Node    |     Objective Bounds      |     Work
 Expl Unexpl |  Obj  Depth IntInf | Incumbent    BestBd   Gap | It/Node Time

     0     0 7404538.20    0   30 9.3050e+07 7404538.20  92.0%     -    0s
H    0     0                    8.285010e+07 7404538.20  91.1%     -    0s
     0     0 1.1614e+07    0   34 8.2850e+07 1.1614e+07  86.0%     -    0s
H    0     0                    5.216990e+07 1.1614e+07  77.7%     -    0s
     0     0 1.1778e+07    0   48 5.2170e+07 1.1778e+07  77.4%     -    0s
H    0     0                    4.200680e+07 1.1778e+07  72.0%     -    0s
     0     0 1.1827e+07    0   35 4.2007e+07 1.1827e+07  71.8%     -    0s
H    0     0                    3.180540e+07 1.1827e+07  62.8%     -    0s
     0     0 1.1852e+07    0   47 3.1805e+07 1.1852e+07  62.7%     -    0s
     0     0 1.1872e+07    0   36 3.1805e+07 1.1872e+07  62.7%     -    0s
     0     0 1.1872e+07    0   38 3.1805e+07 1.1872e+07  62.7%     -    0s
     0     0 1.1872e+07    0   33 3.1805e+07 1.1872e+07  62.7%     -    0s
     0     2 1.1872e+07    0   29 3.1805e+07 1.1872e+07  62.7%     -    0s
H  212   133                    3.179790e+07 1.2045e+07  62.1%  25.9    0s
H  336   200                    3.175830e+07 1.3298e+07  58.1%  23.8    0s
H  381   232                    3.175720e+07 1.3298e+07  58.1%  22.5    0s
* 1101   517              25    3.164970e+07 2.1692e+07  31.5%  20.9    0s
H 1165   551                    3.164860e+07 2.1692e+07  31.5%  21.1    0s
  5144   373     cutoff   37      3.1649e+07 2.1894e+07  30.8%  44.1    5s

Cutting planes:
  Learned: 1
  Gomory: 1
  Cover: 4
  Implied bound: 1
  Clique: 4
  MIR: 4
  GUB cover: 4

Explored 9154 nodes (481786 simplex iterations) in 9.46 seconds
Thread count was 4 (of 4 available processors)

Optimal solution found (tolerance 1.00e-04)
Best objective 3.164860000000e+07, best bound 3.164860000000e+07, gap 0.0%
k_c1	70000.0
k_c2	1000000.0
k_c3	60000.0
k_c4	40000.0
k_c5	90000.0
k_c6	70000.0
k_c7	190000.0
k_c8	130000.0
k_c9	940000.0
k_dN	-0.0
o_1	0.0
o_2	-0.0
o_3	0.0
o_4	0.0
o_5	0.0
o_6	0.0
o_7	-0.0
o_8	-0.0
o_9	-0.0
p_1	0.0
p_2	-0.0
p_3	-0.0
p_4	0.0
p_5	0.0
p_6	0.0
p_7	-0.0
p_8	-0.0
p_9	-0.0
phi_c1	21627.0
phi_c2	43310.0
phi_c3	4823.0
phi_c4	13460.0
phi_c5	20371.0
phi_c6	13547.0
phi_c7	36071.0
phi_c8	27795.0
phi_c9	33221.0
phi_dN	0.0
pi_c1	0.0
pi_c2	0.0
pi_c3	200000.0
pi_c4	0.0
pi_c5	50000.0
pi_c6	200000.0
pi_c7	200000.0
pi_c8	200000.0
pi_c9	200000.0
pi_dN	-0.0
tauD_c1	600000.0
tauD_c2	100000.0
tauD_c3	832500.0
tauD_c4	777900.0
tauD_c5	650000.0
tauD_c6	749900.0
tauD_c7	300000.0
tauD_c8	360925.0
tauD_c9	450000.0
tauD_d0	-0.0
tauD_dN	1000000.0
tauS_c1	896950.0
tauS_c2	321475.0
tauS_c3	328450.0
tauS_c4	296175.0
tauS_c5	855475.0
tauS_c6	295850.0
tauS_c7	294450.0
tauS_c8	311475.0
tauS_c9	283775.0
tauS_d0	-0.0
tauS_dN	999999.0
x_c1_dN	1.0
x_c2_c7	1.0
x_c3_dN	1.0
x_c4_dN	1.0
x_c5_c6	1.0
x_c6_c3	1.0
x_c7_c8	1.0
x_c8_c1	1.0
x_c9_c5	1.0
x_d0_c2	1.0
x_d0_c4	1.0
x_d0_c9	1.0
